n = 50;
capacity = 100;
size = [77, 74, 74, 71, 71, 71, 71, 70, 68, 68, 68, 67, 66, 65, 65, 63, 61, 60, 59, 58, 55, 55, 53, 53, 53, 51, 49, 46, 45, 45, 44, 44, 41, 38, 37, 36, 36, 33, 32, 31, 31, 29, 28, 28, 26, 25, 24, 24, 23, 21];
